
Gurobi 7.0.2 (win64, Java) logging started 02/01/18 15:24:08

Warning: Gurobi version mismatch between Java 7.0.1 and C library 7.0.2
Warning: Gurobi version mismatch between Java 7.0.1 and Jni 7.0.2
Optimize a model with 0 rows, 0 columns and 0 nonzeros
Coefficient statistics:
  Matrix range     [0e+00, 0e+00]
  Objective range  [0e+00, 0e+00]
  Bounds range     [0e+00, 0e+00]
  RHS range        [0e+00, 0e+00]
Presolve time: 0.00s
Presolve: All rows and columns removed
Iteration    Objective       Primal Inf.    Dual Inf.      Time
       0   -0.0000000e+00   0.000000e+00   0.000000e+00      0s

Solved in 0 iterations and 0.00 seconds
Optimal objective -0.000000000e+00

Gurobi 7.0.2 (win64, Java) logging started 02/01/18 15:25:26

Warning: Gurobi version mismatch between Java 7.0.1 and C library 7.0.2
Warning: Gurobi version mismatch between Java 7.0.1 and Jni 7.0.2
Optimize a model with 0 rows, 0 columns and 0 nonzeros
Coefficient statistics:
  Matrix range     [0e+00, 0e+00]
  Objective range  [0e+00, 0e+00]
  Bounds range     [0e+00, 0e+00]
  RHS range        [0e+00, 0e+00]
Presolve time: 0.00s
Presolve: All rows and columns removed
Iteration    Objective       Primal Inf.    Dual Inf.      Time
       0   -0.0000000e+00   0.000000e+00   0.000000e+00      0s

Solved in 0 iterations and 0.00 seconds
Optimal objective -0.000000000e+00

Gurobi 7.0.2 (win64, Java) logging started 02/01/18 15:26:15

Warning: Gurobi version mismatch between Java 7.0.1 and C library 7.0.2
Warning: Gurobi version mismatch between Java 7.0.1 and Jni 7.0.2
Optimize a model with 2091 rows, 262 columns and 3935 nonzeros
Variable types: 0 continuous, 262 integer (262 binary)
Coefficient statistics:
  Matrix range     [1e+00, 1e+00]
  Objective range  [4e+00, 6e+00]
  Bounds range     [1e+00, 1e+00]
  RHS range        [1e+00, 1e+00]
Found heuristic solution: objective 18
Presolve removed 2023 rows and 215 columns
Presolve time: 0.09s
Presolved: 68 rows, 47 columns, 162 nonzeros
Found heuristic solution: objective 484.0000000
Variable types: 0 continuous, 47 integer (47 binary)

Root relaxation: objective 4.950000e+02, 31 iterations, 0.00 seconds

    Nodes    |    Current Node    |     Objective Bounds      |     Work
 Expl Unexpl |  Obj  Depth IntInf | Incumbent    BestBd   Gap | It/Node Time

*    0     0               0     495.0000000  495.00000  0.00%     -    0s

Explored 0 nodes (31 simplex iterations) in 0.11 seconds
Thread count was 2 (of 2 available processors)

Solution count 3: 495 484 434 
Pool objective bound 495

Optimal solution found (tolerance 1.00e-04)
Best objective 4.950000000000e+02, best bound 4.950000000000e+02, gap 0.0000%

Gurobi 7.0.2 (win64, Java) logging started 02/01/18 15:28:46

Warning: Gurobi version mismatch between Java 7.0.1 and C library 7.0.2
Warning: Gurobi version mismatch between Java 7.0.1 and Jni 7.0.2
Optimize a model with 2091 rows, 262 columns and 3935 nonzeros
Variable types: 0 continuous, 262 integer (262 binary)
Coefficient statistics:
  Matrix range     [1e+00, 1e+00]
  Objective range  [4e+00, 6e+00]
  Bounds range     [1e+00, 1e+00]
  RHS range        [1e+00, 1e+00]
Found heuristic solution: objective 18
Presolve removed 2023 rows and 215 columns
Presolve time: 0.02s
Presolved: 68 rows, 47 columns, 162 nonzeros
Found heuristic solution: objective 489.0000000
Variable types: 0 continuous, 47 integer (47 binary)

Root relaxation: objective 4.950000e+02, 34 iterations, 0.00 seconds

    Nodes    |    Current Node    |     Objective Bounds      |     Work
 Expl Unexpl |  Obj  Depth IntInf | Incumbent    BestBd   Gap | It/Node Time

*    0     0               0     495.0000000  495.00000  0.00%     -    0s

Explored 0 nodes (34 simplex iterations) in 0.03 seconds
Thread count was 2 (of 2 available processors)

Solution count 3: 495 489 435 
Pool objective bound 495

Optimal solution found (tolerance 1.00e-04)
Best objective 4.950000000000e+02, best bound 4.950000000000e+02, gap 0.0000%

Gurobi 7.0.2 (win64, Java) logging started 02/01/18 15:30:38

Warning: Gurobi version mismatch between Java 7.0.1 and C library 7.0.2
Warning: Gurobi version mismatch between Java 7.0.1 and Jni 7.0.2
Optimize a model with 2091 rows, 262 columns and 3935 nonzeros
Variable types: 0 continuous, 262 integer (262 binary)
Coefficient statistics:
  Matrix range     [1e+00, 1e+00]
  Objective range  [4e+00, 6e+00]
  Bounds range     [1e+00, 1e+00]
  RHS range        [1e+00, 1e+00]
Found heuristic solution: objective 18
Presolve removed 2006 rows and 203 columns
Presolve time: 0.02s
Presolved: 85 rows, 59 columns, 254 nonzeros
Found heuristic solution: objective 489.0000000
Variable types: 0 continuous, 59 integer (59 binary)

Root relaxation: objective 4.950000e+02, 30 iterations, 0.00 seconds

    Nodes    |    Current Node    |     Objective Bounds      |     Work
 Expl Unexpl |  Obj  Depth IntInf | Incumbent    BestBd   Gap | It/Node Time

*    0     0               0     495.0000000  495.00000  0.00%     -    0s

Explored 0 nodes (30 simplex iterations) in 0.02 seconds
Thread count was 2 (of 2 available processors)

Solution count 3: 495 489 444 
Pool objective bound 495

Optimal solution found (tolerance 1.00e-04)
Best objective 4.950000000000e+02, best bound 4.950000000000e+02, gap 0.0000%

Gurobi 7.0.2 (win64, Java) logging started 02/01/18 23:36:44

Warning: Gurobi version mismatch between Java 7.0.1 and C library 7.0.2
Warning: Gurobi version mismatch between Java 7.0.1 and Jni 7.0.2
Optimize a model with 8 rows, 1 columns and 8 nonzeros
Variable types: 0 continuous, 1 integer (1 binary)
Coefficient statistics:
  Matrix range     [1e+00, 1e+00]
  Objective range  [6e+00, 6e+00]
  Bounds range     [1e+00, 1e+00]
  RHS range        [1e+00, 1e+00]
Found heuristic solution: objective 6

Explored 0 nodes (0 simplex iterations) in 0.00 seconds
Thread count was 1 (of 2 available processors)

Solution count 1: 6 
Pool objective bound 6

Optimal solution found (tolerance 1.00e-04)
Best objective 6.000000000000e+00, best bound 6.000000000000e+00, gap 0.0000%
